c random assignment satisfied 2/430 clauses
o 428
c flipped 0/100 variables (k=0)
c solution improved by 199 clauses
o 229
c flipped 0/100 variables (k=0)
c solution improved by 14 clauses
o 215
c flipped 0/100 variables (k=0)
c solution improved by 1 clause
o 214
c flipped 0/100 variables (k=0)
c solution improved by 32 clauses
o 182
c flipped 0/100 variables (k=0)
c solution improved by 9 clauses
o 173
c flipped 0/100 variables (k=0)
c solution improved by 2 clauses
o 171
c flipped 0/100 variables (k=0)
c solution improved by 8 clauses
o 163
c flipped 0/100 variables (k=0)
c solution improved by 16 clauses
o 147
c flipped 0/100 variables (k=0)
c solution improved by 15 clauses
o 132
c flipped 0/100 variables (k=0)
c solution improved by 10 clauses
o 122
c flipped 0/100 variables (k=0)
c solution improved by 11 clauses
o 111
c flipped 0/100 variables (k=0)
c solution improved by 1 clause
o 110
c flipped 0/100 variables (k=0)
c solution improved by 16 clauses
o 94
c flipped 0/100 variables (k=0)
c solution improved by 1 clause
o 93
c flipped 0/100 variables (k=0)
c solution improved by 1 clause
o 92
c flipped 0/100 variables (k=0)
c solution improved by 1 clause
o 91
c flipped 0/100 variables (k=0)
c solution improved by 1 clause
o 90
c flipped 0/100 variables (k=0)
c solution improved by 2 clauses
o 88
c flipped 0/100 variables (k=0)
c solution improved by 7 clauses
o 81
c flipped 0/100 variables (k=0)
c solution improved by 1 clause
o 80
c flipped 0/100 variables (k=0)
c solution improved by 17 clauses
o 63
c flipped 0/100 variables (k=0)
c solution improved by 1 clause
o 62
c flipped 0/100 variables (k=0)
c solution improved by 2 clauses
o 60
c flipped 0/100 variables (k=0)
c solution improved by 4 clauses
o 56
c flipped 0/100 variables (k=0)
c solution improved by 1 clause
o 55
c flipped 0/100 variables (k=0)
c solution improved by 2 clauses
o 53
v 1011001101010010010001010100000110010000011110110011101111110110101001111000111001101001001111101011
c stuck at 377/430 clauses with k=0
s UNKNOWN
